CapLotSizing_PM/src/Instancias/NCLSHT/6i12p4m/NBA09.OUT
 CG ITER, OVMR, OVMRUB =           1   17160.0195312   15736.2988281
 CG ITER, OVMR, OVMRUB =           2   15736.3007812   15736.2988281
 CG ITER, OVMR, OVMRUB =           3   15736.2988281   15736.2988281
 CG ITER, OVMR, OVMRUB =           4   15736.2998047   15736.2988281
 CG ITER, OVMR, OVMRUB =           5   15736.2988281   15736.2988281
 CG ITER, OVMR, OVMRUB =           6   15736.3007812   15736.2988281
 CG ITER, OVMR, OVMRUB =           7   15736.3007812   15736.2988281
 CG ITER, OVMR, OVMRUB =           8   15736.2998047   15736.2988281
 CG ITER, OVMR, OVMRUB =           9   15736.2988281   15736.2988281
 CG ITER, OVMR, OVMRUB =          10   15736.3037109   15736.2988281
 CG ITER, OVMR, OVMRUB =          11   15736.2988281   15736.2988281
 CG ITER, OVMR, OVMRUB =          12   15736.2988281   15736.2988281
OVLB =   15736.2988281 OVLUB =   15736.2988281 TIME =       1.3500000
